c "999890.clq"
p edge 100 1344
e 1 17
e 1 19
e 1 20
e 1 22
e 1 28
e 1 67
e 2 17
e 2 18
e 2 23
e 2 28
e 2 31
e 2 33
e 2 43
e 2 47
e 2 51
e 2 78
e 2 81
e 2 93
e 3 17
e 3 18
e 3 19
e 3 20
e 3 21
e 3 22
e 3 35
e 3 37
e 3 40
e 3 45
e 3 46
e 3 48
e 3 51
e 3 54
e 3 56
e 3 70
e 3 71
e 3 81
e 3 88
e 3 96
e 4 17
e 4 18
e 4 20
e 4 21
e 4 22
e 4 23
e 4 25
e 4 26
e 4 29
e 4 30
e 4 31
e 4 32
e 4 33
e 4 43
e 4 44
e 4 46
e 4 56
e 4 65
e 4 66
e 4 72
e 4 76
e 4 85
e 4 92
e 4 99
e 5 17
e 5 18
e 5 19
e 5 25
e 5 26
e 5 27
e 5 30
e 5 34
e 5 36
e 5 37
e 5 41
e 5 43
e 5 58
e 5 60
e 5 62
e 5 63
e 5 70
e 5 71
e 5 82
e 5 84
e 5 85
e 5 92
e 5 93
e 5 100
e 6 17
e 6 18
e 6 19
e 6 20
e 6 21
e 6 24
e 6 25
e 6 27
e 6 28
e 6 29
e 6 30
e 6 36
e 6 39
e 6 40
e 6 42
e 6 45
e 6 46
e 6 62
e 6 79
e 6 90
e 6 99
e 6 100
e 7 17
e 7 18
e 7 19
e 7 20
e 7 21
e 7 22
e 7 23
e 7 24
e 7 27
e 7 28
e 7 29
e 7 30
e 7 32
e 7 33
e 7 37
e 7 46
e 7 47
e 7 48
e 7 51
e 7 53
e 7 57
e 7 60
e 7 66
e 7 67
e 7 73
e 7 76
e 7 78
e 7 81
e 7 82
e 7 87
e 7 90
e 7 92
e 7 93
e 8 17
e 8 18
e 8 19
e 8 20
e 8 21
e 8 22
e 8 24
e 8 26
e 8 27
e 8 28
e 8 30
e 8 31
e 8 32
e 8 42
e 8 44
e 8 45
e 8 46
e 8 51
e 8 59
e 8 67
e 8 69
e 8 71
e 8 72
e 8 73
e 8 91
e 8 92
e 8 98
e 8 99
e 9 17
e 9 18
e 9 19
e 9 20
e 9 21
e 9 22
e 9 23
e 9 24
e 9 26
e 9 27
e 9 30
e 9 33
e 9 39
e 9 40
e 9 42
e 9 44
e 9 47
e 9 49
e 9 54
e 9 62
e 9 65
e 9 86
e 9 88
e 9 93
e 9 100
e 10 17
e 10 18
e 10 19
e 10 20
e 10 21
e 10 22
e 10 23
e 10 24
e 10 25
e 10 29
e 10 31
e 10 35
e 10 45
e 10 47
e 10 48
e 10 50
e 10 53
e 10 54
e 10 56
e 10 58
e 10 59
e 10 61
e 10 66
e 10 71
e 10 74
e 10 86
e 10 87
e 10 96
e 10 99
e 11 17
e 11 18
e 11 19
e 11 20
e 11 21
e 11 22
e 11 23
e 11 24
e 11 26
e 11 29
e 11 32
e 11 34
e 11 35
e 11 38
e 11 43
e 11 53
e 11 64
e 11 71
e 11 89
e 12 17
e 12 18
e 12 19
e 12 20
e 12 21
e 12 22
e 12 23
e 12 24
e 12 25
e 12 29
e 12 30
e 12 34
e 12 37
e 12 40
e 12 53
e 12 59
e 12 62
e 12 64
e 12 72
e 12 74
e 12 87
e 12 88
e 12 90
e 13 17
e 13 18
e 13 19
e 13 20
e 13 21
e 13 22
e 13 23
e 13 29
e 13 35
e 13 38
e 13 39
e 13 40
e 13 42
e 13 49
e 13 52
e 13 64
e 13 73
e 13 94
e 14 17
e 14 18
e 14 19
e 14 23
e 14 24
e 14 25
e 14 26
e 14 27
e 14 35
e 14 38
e 14 42
e 14 43
e 14 48
e 14 50
e 14 52
e 14 55
e 14 56
e 14 59
e 14 64
e 14 65
e 14 67
e 14 75
e 14 83
e 14 87
e 14 92
e 14 94
e 14 95
e 14 98
e 14 100
e 15 17
e 15 18
e 15 19
e 15 20
e 15 21
e 15 22
e 15 23
e 15 25
e 15 28
e 15 33
e 15 34
e 15 39
e 15 40
e 15 43
e 15 51
e 15 54
e 15 59
e 15 67
e 15 77
e 15 80
e 15 81
e 15 82
e 15 91
e 16 17
e 16 18
e 16 19
e 16 20
e 16 21
e 16 23
e 16 24
e 16 25
e 16 26
e 16 27
e 16 32
e 16 33
e 16 34
e 16 35
e 16 36
e 16 37
e 16 38
e 16 40
e 16 42
e 16 55
e 16 59
e 16 66
e 16 67
e 16 68
e 16 69
e 16 70
e 16 75
e 16 76
e 16 81
e 16 96
e 17 18
e 17 19
e 17 20
e 17 21
e 17 22
e 17 23
e 17 24
e 17 25
e 17 26
e 17 27
e 17 28
e 17 31
e 17 32
e 17 34
e 17 36
e 17 37
e 17 38
e 17 39
e 17 41
e 17 43
e 17 51
e 17 54
e 17 57
e 17 61
e 17 62
e 17 63
e 17 65
e 17 69
e 17 74
e 17 75
e 17 76
e 17 77
e 17 79
e 17 80
e 17 81
e 17 82
e 17 83
e 17 85
e 17 87
e 17 88
e 17 89
e 17 91
e 17 92
e 17 95
e 17 100
e 18 19
e 18 20
e 18 21
e 18 22
e 18 23
e 18 24
e 18 25
e 18 26
e 18 28
e 18 29
e 18 30
e 18 31
e 18 32
e 18 33
e 18 34
e 18 35
e 18 36
e 18 37
e 18 41
e 18 44
e 18 45
e 18 47
e 18 49
e 18 50
e 18 51
e 18 52
e 18 55
e 18 56
e 18 61
e 18 63
e 18 64
e 18 65
e 18 69
e 18 71
e 18 73
e 18 75
e 18 77
e 18 78
e 18 81
e 18 88
e 18 89
e 18 90
e 18 92
e 18 95
e 18 96
e 18 97
e 18 98
e 18 99
e 18 100
e 19 20
e 19 21
e 19 22
e 19 23
e 19 24
e 19 25
e 19 26
e 19 27
e 19 28
e 19 29
e 19 30
e 19 32
e 19 33
e 19 34
e 19 35
e 19 36
e 19 38
e 19 40
e 19 42
e 19 43
e 19 44
e 19 46
e 19 49
e 19 50
e 19 51
e 19 52
e 19 53
e 19 56
e 19 59
e 19 60
e 19 61
e 19 63
e 19 64
e 19 65
e 19 68
e 19 70
e 19 73
e 19 75
e 19 80
e 19 81
e 19 88
e 19 94
e 19 95
e 20 21
e 20 22
e 20 23
e 20 24
e 20 25
e 20 26
e 20 27
e 20 28
e 20 29
e 20 30
e 20 31
e 20 32
e 20 33
e 20 36
e 20 37
e 20 38
e 20 39
e 20 46
e 20 47
e 20 48
e 20 50
e 20 54
e 20 55
e 20 57
e 20 58
e 20 59
e 20 60
e 20 61
e 20 62
e 20 68
e 20 70
e 20 71
e 20 72
e 20 73
e 20 77
e 20 78
e 20 79
e 20 84
e 20 85
e 20 86
e 20 87
e 20 91
e 20 95
e 20 97
e 20 99
e 21 22
e 21 23
e 21 24
e 21 25
e 21 26
e 21 27
e 21 28
e 21 29
e 21 31
e 21 32
e 21 33
e 21 34
e 21 35
e 21 36
e 21 37
e 21 39
e 21 41
e 21 42
e 21 44
e 21 45
e 21 48
e 21 49
e 21 52
e 21 58
e 21 59
e 21 61
e 21 67
e 21 72
e 21 78
e 21 84
e 21 86
e 21 88
e 21 89
e 21 98
e 21 99
e 22 24
e 22 25
e 22 26
e 22 27
e 22 28
e 22 29
e 22 30
e 22 31
e 22 33
e 22 34
e 22 35
e 22 40
e 22 41
e 22 42
e 22 43
e 22 45
e 22 46
e 22 47
e 22 48
e 22 53
e 22 55
e 22 60
e 22 61
e 22 63
e 22 70
e 22 72
e 22 73
e 22 76
e 22 80
e 22 83
e 22 85
e 22 91
e 22 92
e 23 24
e 23 25
e 23 26
e 23 27
e 23 29
e 23 30
e 23 31
e 23 32
e 23 34
e 23 36
e 23 38
e 23 40
e 23 41
e 23 42
e 23 43
e 23 45
e 23 46
e 23 47
e 23 49
e 23 50
e 23 52
e 23 53
e 23 55
e 23 56
e 23 57
e 23 58
e 23 61
e 23 62
e 23 64
e 23 66
e 23 70
e 23 72
e 23 73
e 23 77
e 23 79
e 23 81
e 23 85
e 23 87
e 23 90
e 23 91
e 23 93
e 23 97
e 24 25
e 24 26
e 24 27
e 24 28
e 24 30
e 24 31
e 24 33
e 24 34
e 24 35
e 24 37
e 24 39
e 24 40
e 24 41
e 24 45
e 24 49
e 24 50
e 24 52
e 24 54
e 24 61
e 24 74
e 24 80
e 24 83
e 24 87
e 24 94
e 24 96
e 25 26
e 25 27
e 25 28
e 25 29
e 25 30
e 25 31
e 25 32
e 25 33
e 25 34
e 25 36
e 25 38
e 25 39
e 25 41
e 25 42
e 25 44
e 25 46
e 25 50
e 25 53
e 25 55
e 25 57
e 25 58
e 25 60
e 25 67
e 25 69
e 25 80
e 25 81
e 25 92
e 25 93
e 25 95
e 25 98
e 25 99
e 26 27
e 26 28
e 26 30
e 26 31
e 26 32
e 26 33
e 26 35
e 26 36
e 26 37
e 26 38
e 26 39
e 26 46
e 26 52
e 26 53
e 26 55
e 26 57
e 26 58
e 26 61
e 26 62
e 26 63
e 26 64
e 26 65
e 26 67
e 26 78
e 26 80
e 26 82
e 26 85
e 26 86
e 26 88
e 26 100
e 27 28
e 27 29
e 27 31
e 27 32
e 27 33
e 27 38
e 27 39
e 27 40
e 27 41
e 27 42
e 27 43
e 27 44
e 27 45
e 27 46
e 27 47
e 27 49
e 27 50
e 27 55
e 27 72
e 27 85
e 27 86
e 27 89
e 27 91
e 27 100
e 28 29
e 28 30
e 28 31
e 28 32
e 28 35
e 28 36
e 28 38
e 28 42
e 28 43
e 28 45
e 28 48
e 28 55
e 28 57
e 28 59
e 28 61
e 28 63
e 28 64
e 28 66
e 28 75
e 28 78
e 28 82
e 28 83
e 28 84
e 28 85
e 28 87
e 28 89
e 28 90
e 28 92
e 28 98
e 28 100
e 29 33
e 29 34
e 29 37
e 29 40
e 29 41
e 29 44
e 29 48
e 29 49
e 29 52
e 29 55
e 29 56
e 29 57
e 29 62
e 29 64
e 29 75
e 29 84
e 29 89
e 29 93
e 29 95
e 30 31
e 30 35
e 30 36
e 30 39
e 30 41
e 30 42
e 30 47
e 30 49
e 30 50
e 30 53
e 30 54
e 30 58
e 30 68
e 30 69
e 30 71
e 30 78
e 30 81
e 30 82
e 30 84
e 30 97
e 30 100
e 31 32
e 31 34
e 31 35
e 31 36
e 31 39
e 31 41
e 31 43
e 31 45
e 31 47
e 31 50
e 31 51
e 31 52
e 31 59
e 31 61
e 31 65
e 31 69
e 31 70
e 31 71
e 31 72
e 31 74
e 31 75
e 31 76
e 31 77
e 31 78
e 31 80
e 31 90
e 31 94
e 31 95
e 31 97
e 31 99
e 32 34
e 32 35
e 32 37
e 32 38
e 32 41
e 32 42
e 32 43
e 32 44
e 32 48
e 32 53
e 32 55
e 32 56
e 32 57
e 32 60
e 32 62
e 32 63
e 32 65
e 32 68
e 32 75
e 32 76
e 32 79
e 32 97
e 33 36
e 33 37
e 33 40
e 33 41
e 33 44
e 33 45
e 33 46
e 33 48
e 33 49
e 33 51
e 33 52
e 33 55
e 33 58
e 33 63
e 33 69
e 33 70
e 33 73
e 33 79
e 33 80
e 33 81
e 33 82
e 33 83
e 33 88
e 33 91
e 33 95
e 33 97
e 34 37
e 34 38
e 34 39
e 34 41
e 34 47
e 34 52
e 34 53
e 34 54
e 34 57
e 34 58
e 34 59
e 34 62
e 34 68
e 34 85
e 34 96
e 35 36
e 35 38
e 35 44
e 35 46
e 35 48
e 35 49
e 35 51
e 35 53
e 35 54
e 35 57
e 35 60
e 35 62
e 35 63
e 35 66
e 35 72
e 35 74
e 35 77
e 35 82
e 35 83
e 35 84
e 35 87
e 35 88
e 35 91
e 35 93
e 35 95
e 35 98
e 35 100
e 36 37
e 36 38
e 36 39
e 36 40
e 36 42
e 36 44
e 36 45
e 36 47
e 36 48
e 36 49
e 36 50
e 36 51
e 36 59
e 36 62
e 36 68
e 36 70
e 36 72
e 36 77
e 36 78
e 36 82
e 36 87
e 36 97
e 37 39
e 37 44
e 37 48
e 37 55
e 37 56
e 37 65
e 37 67
e 37 74
e 37 89
e 37 96
e 38 40
e 38 46
e 38 51
e 38 54
e 38 57
e 38 66
e 38 72
e 38 73
e 38 80
e 38 82
e 38 84
e 38 96
e 39 43
e 39 45
e 39 48
e 39 49
e 39 52
e 39 58
e 39 64
e 39 66
e 39 68
e 39 69
e 39 77
e 39 79
e 39 83
e 39 86
e 39 89
e 39 90
e 39 93
e 40 41
e 40 43
e 40 44
e 40 49
e 40 51
e 40 58
e 40 63
e 40 67
e 40 73
e 40 79
e 40 94
e 40 97
e 40 99
e 41 44
e 41 46
e 41 47
e 41 50
e 41 51
e 41 52
e 41 56
e 41 66
e 41 75
e 41 77
e 41 78
e 41 81
e 41 84
e 41 88
e 41 89
e 41 90
e 41 93
e 41 97
e 42 45
e 42 49
e 42 59
e 42 60
e 42 61
e 42 63
e 42 64
e 42 67
e 42 85
e 42 88
e 42 93
e 43 47
e 43 50
e 43 52
e 43 53
e 43 58
e 43 61
e 43 66
e 43 67
e 43 69
e 43 74
e 43 75
e 43 89
e 43 91
e 44 50
e 44 52
e 44 54
e 44 65
e 44 66
e 44 69
e 44 70
e 44 71
e 44 94
e 45 47
e 45 53
e 45 54
e 45 56
e 45 62
e 45 64
e 45 67
e 45 69
e 45 83
e 45 85
e 45 90
e 45 96
e 45 98
e 46 53
e 46 54
e 46 58
e 46 60
e 46 63
e 46 72
e 46 98
e 47 48
e 47 50
e 47 54
e 47 57
e 47 60
e 47 69
e 47 71
e 47 73
e 47 75
e 47 76
e 47 78
e 47 83
e 47 86
e 47 93
e 47 100
e 48 57
e 48 58
e 48 59
e 48 60
e 48 63
e 48 68
e 48 71
e 48 79
e 48 80
e 48 93
e 49 51
e 49 55
e 49 56
e 49 60
e 49 64
e 49 67
e 49 73
e 49 74
e 49 75
e 49 76
e 49 94
e 49 99
e 50 57
e 50 58
e 50 62
e 50 68
e 50 69
e 50 83
e 50 89
e 51 56
e 51 63
e 51 66
e 51 68
e 51 70
e 51 77
e 51 79
e 51 80
e 51 94
e 51 98
e 52 55
e 52 56
e 52 59
e 52 61
e 52 66
e 52 67
e 52 71
e 52 74
e 52 81
e 52 82
e 52 85
e 52 88
e 52 98
e 52 99
e 53 54
e 53 57
e 53 71
e 53 73
e 53 74
e 53 77
e 53 84
e 53 89
e 53 99
e 54 60
e 54 65
e 54 68
e 54 77
e 54 79
e 54 84
e 54 86
e 54 96
e 55 56
e 55 61
e 55 71
e 55 76
e 55 88
e 56 60
e 56 63
e 56 68
e 56 70
e 56 73
e 56 77
e 56 85
e 56 92
e 57 60
e 57 64
e 57 74
e 57 79
e 58 65
e 58 76
e 58 78
e 58 80
e 58 83
e 58 86
e 58 94
e 59 62
e 59 64
e 59 68
e 59 72
e 59 78
e 59 82
e 59 84
e 59 92
e 60 75
e 60 76
e 60 83
e 60 91
e 61 68
e 61 73
e 61 74
e 61 80
e 61 81
e 61 82
e 61 94
e 61 95
e 61 96
e 61 99
e 62 65
e 62 66
e 62 87
e 63 65
e 63 66
e 63 71
e 63 75
e 63 78
e 63 79
e 63 80
e 63 84
e 63 85
e 63 86
e 63 87
e 63 89
e 64 65
e 64 69
e 64 74
e 64 75
e 64 86
e 64 94
e 65 68
e 65 69
e 65 70
e 65 72
e 65 86
e 65 93
e 65 97
e 66 70
e 66 72
e 66 79
e 66 90
e 67 76
e 67 81
e 67 88
e 67 91
e 67 94
e 67 95
e 67 97
e 67 98
e 68 70
e 68 84
e 68 96
e 68 97
e 69 86
e 69 95
e 70 74
e 70 76
e 70 83
e 70 90
e 70 94
e 70 99
e 71 76
e 71 77
e 71 79
e 71 82
e 71 91
e 71 92
e 71 98
e 72 77
e 72 89
e 72 95
e 73 74
e 73 88
e 74 76
e 74 78
e 74 87
e 74 90
e 74 96
e 74 100
e 75 79
e 75 83
e 75 96
e 75 98
e 76 82
e 76 90
e 76 91
e 76 92
e 77 80
e 77 84
e 77 87
e 77 90
e 78 96
e 80 87
e 80 89
e 80 91
e 81 93
e 81 97
e 81 98
e 82 83
e 82 85
e 83 84
e 83 90
e 83 93
e 83 95
e 84 86
e 84 99
e 85 86
e 85 91
e 85 94
e 85 97
e 86 92
e 86 100
e 87 97
e 87 98
e 88 92
e 89 94
e 89 96
e 94 95
e 94 100
e 95 100
